c Standarized MaxSat Instance
c{
c "sha1sum": "93c992b6a3a50013f188e186975814b3c6b45085",
c "nvars": 114,
c "ncls": 320,
c "total_lits": 744,
c "nhards": 300,
c "nhard_nlits": 724,
c "nhard_len_stats":
c    { "min": 1,
c      "max": 11,
c      "ave": 2.4133,
c      "stddev": 0.8808 },
c "nsofts": 20,
c "nsoft_nlits": 20,
c "nsoft_len_stats":
c    { "min": 1,
c      "max": 1,
c      "ave": 1.0000,
c      "stddev": 0.0000 },
c "nsoft_wts": 1,
c "soft_wt_stats":
c    { "min": 1,
c      "max": 1,
c      "ave": 1.0000,
c      "stddev": 0.0000 }
c}
c------------------------------------------------------------
c Output of pmcnf2wcnf by jpms@ecs.soton.ac.uk
c 
1 -1 0
1 -2 0
1 -3 0
1 -4 0
1 -5 0
1 -6 0
1 -7 0
1 -8 0
1 -9 0
1 -10 0
1 -11 0
1 -12 0
1 -13 0
1 -14 0
1 -15 0
1 -16 0
1 -17 0
1 -18 0
1 -19 0
1 -20 0
h 1 0
h 2 0
h 3 0
h 4 0
h 9 0
h 10 0
h 11 0
h 12 0
h 17 0
h 18 0
h 5 0
h 7 0
h 13 0
h 15 0
h 19 0
h -21 -22 6 0
h 23 21 0
h -24 21 0
h -25 21 0
h 26 21 0
h 27 21 0
h -28 21 0
h 29 21 0
h 30 21 0
h 31 21 0
h 32 22 0
h -33 22 0
h -25 34 22 0
h 25 -34 22 0
h -26 35 22 0
h 26 -35 22 0
h 36 22 0
h 37 22 0
h -29 22 0
h -30 22 0
h -31 22 0
h -38 8 0
h -39 38 0
h 40 38 0
h -41 38 0
h -42 38 0
h 43 38 0
h -44 38 0
h -45 38 0
h -46 38 0
h 47 38 0
h -48 -49 38 0
h 48 49 38 0
h -50 -51 -52 14 0
h -53 50 0
h -54 -23 50 0
h 54 23 50 0
h -55 50 0
h 24 50 0
h -27 50 0
h 28 50 0
h 53 51 0
h -54 23 51 0
h 54 -23 51 0
h -55 51 0
h -24 51 0
h 27 51 0
h -28 51 0
h 53 52 0
h 54 52 0
h -55 52 0
h -25 52 0
h 26 52 0
h 29 52 0
h 30 52 0
h 31 52 0
h -56 -57 -58 -59 -60 -61 -62 -63 -64 -65 16 0
h -66 56 0
h -67 56 0
h -68 56 0
h 69 56 0
h 70 56 0
h -71 56 0
h -72 56 0
h 73 56 0
h 74 56 0
h 75 56 0
h -76 56 0
h -77 56 0
h -78 56 0
h -66 57 0
h -67 -23 57 0
h 67 23 57 0
h -69 57 0
h -70 57 0
h -71 -24 57 0
h 71 24 57 0
h -72 57 0
h 73 57 0
h -74 -27 57 0
h 74 27 57 0
h 28 57 0
h 75 57 0
h 76 57 0
h 77 57 0
h 78 57 0
h 66 58 0
h -67 23 58 0
h 67 -23 58 0
h -69 58 0
h -70 58 0
h -71 24 58 0
h 71 -24 58 0
h -72 58 0
h 73 58 0
h -74 27 58 0
h 74 -27 58 0
h -28 58 0
h 75 58 0
h 76 58 0
h 77 58 0
h 78 58 0
h -66 59 0
h -67 -32 59 0
h 67 32 59 0
h -69 59 0
h -70 -33 59 0
h 70 33 59 0
h -71 59 0
h -72 -34 59 0
h 72 34 59 0
h -73 -35 59 0
h 73 35 59 0
h -74 -36 59 0
h 74 36 59 0
h -75 -37 59 0
h 75 37 59 0
h -76 59 0
h -77 59 0
h -78 59 0
h 66 60 0
h -67 32 60 0
h 67 -32 60 0
h -69 60 0
h -70 33 60 0
h 70 -33 60 0
h -71 60 0
h -72 34 60 0
h 72 -34 60 0
h -73 35 60 0
h 73 -35 60 0
h -74 36 60 0
h 74 -36 60 0
h -75 37 60 0
h 75 -37 60 0
h -76 60 0
h -77 60 0
h -78 60 0
h -66 61 0
h -67 -79 61 0
h 67 79 61 0
h 80 61 0
h -69 -81 61 0
h 69 81 61 0
h -70 61 0
h 71 61 0
h -72 61 0
h 73 61 0
h -74 -82 61 0
h 74 82 61 0
h 83 61 0
h 75 61 0
h -76 -84 61 0
h 76 84 61 0
h -77 61 0
h -78 61 0
h 66 62 0
h -67 79 62 0
h 67 -79 62 0
h -80 62 0
h -69 81 62 0
h 69 -81 62 0
h -70 62 0
h 71 62 0
h -72 62 0
h 73 62 0
h -74 82 62 0
h 74 -82 62 0
h -83 62 0
h 75 62 0
h -76 84 62 0
h 76 -84 62 0
h -77 62 0
h -78 62 0
h 66 63 0
h 67 63 0
h -69 63 0
h -70 63 0
h -71 63 0
h -72 25 63 0
h 72 -25 63 0
h -73 26 63 0
h 73 -26 63 0
h 74 63 0
h 75 63 0
h -76 29 63 0
h 76 -29 63 0
h -77 30 63 0
h 77 -30 63 0
h -78 31 63 0
h 78 -31 63 0
h -66 -53 64 0
h 66 53 64 0
h -67 -54 64 0
h 67 54 64 0
h 69 64 0
h -70 -55 64 0
h 70 55 64 0
h -71 64 0
h -72 64 0
h 73 64 0
h 74 64 0
h 75 64 0
h 76 64 0
h 77 64 0
h 78 64 0
h -66 53 65 0
h 66 -53 65 0
h -67 54 65 0
h 67 -54 65 0
h -69 65 0
h -70 55 65 0
h 70 -55 65 0
h -71 65 0
h -72 65 0
h 73 65 0
h 74 65 0
h 75 65 0
h 76 65 0
h 77 65 0
h 78 65 0
h -85 -86 -87 -88 20 0
h -89 85 0
h -90 -32 85 0
h 90 32 85 0
h 91 85 0
h -92 -33 85 0
h 92 33 85 0
h 34 85 0
h -35 85 0
h -93 -36 85 0
h 93 36 85 0
h -94 85 0
h -37 85 0
h 89 86 0
h -90 32 86 0
h 90 -32 86 0
h 91 86 0
h -92 33 86 0
h 92 -33 86 0
h -34 86 0
h 35 86 0
h -93 36 86 0
h 93 -36 86 0
h -94 86 0
h 37 86 0
h 89 87 0
h 90 87 0
h 91 87 0
h -92 87 0
h -25 87 0
h 26 87 0
h 93 87 0
h -94 87 0
h -29 87 0
h -30 87 0
h -31 87 0
h -89 66 88 0
h 89 -66 88 0
h -90 67 88 0
h 90 -67 88 0
h 91 88 0
h -69 88 0
h -92 70 88 0
h 92 -70 88 0
h -71 88 0
h -72 88 0
h 73 88 0
h -93 74 88 0
h 93 -74 88 0
h -94 88 0
h 75 88 0
h -76 88 0
h -77 88 0
h -78 88 0
h -1 -2 -95 0
h -3 -4 -96 0
h -9 -10 -97 -98 -99 -100 -101 0
h -11 -12 -102 -103 -104 -105 -106 0
h -17 -18 -107 -108 0
h -5 -6 -109 -110 -111 0
h -7 -8 0
h -13 -14 -112 -113 0
h -15 -16 -114 0
h -19 -20 0
